c ---- [ banner ] ------------------------------------------------------------
c
c Kissat SAT Solver
c 
c Copyright (c) 2021-2024 Armin Biere University of Freiburg
c Copyright (c) 2019-2021 Armin Biere Johannes Kepler University Linz
c 
c Version 4.0.1 43f02cf3e992cb44653b35e5cb26f93281552ae0
c gcc (Ubuntu 13.2.0-23ubuntu4) 13.2.0 -W -Wall -O3 -DNDEBUG
c Thu Sep 12 12:27:46 CEST 2024 Linux abryzen9 6.8.0-41-generic x86_64
c
c ---- [ parsing ] -----------------------------------------------------------
c
c opened and reading DIMACS file:
c
c   /data/artifact/AMulet2.0_artifact/exp4/cnf_compress2rs_64/64_64_U1_WT_RC_Multgen_compress2rs.cnf
c
c parsed 'p cnf 36468 141792' header
c closing input after reading 2761208 bytes (3 MB)
c finished parsing after 0.02 seconds
c
c ---- [ options ] -----------------------------------------------------------
c
c --stable=0                       (different from default '1')
c
c ---- [ solving ] -----------------------------------------------------------
c
c  seconds switched rate     size/glue tier1  binary           remaining
c         MB reductions conflicts size  tier2     irredundant
c          level restarts redundant glue  trail           variables
c
c *  0.02 11 0 0 0  0 0   0   0 0.0 0 0 0 0 0% 29338 112452 36465 100%
c (  0.03 13 0 0 0  0 0   0   0 0.0 0 0 0 0 0% 29338 112452 36465 100%
c .  0.04 13 0 0 0  0 0   0   0 0.0 0 0 0 0 0% 29334 112452 36465 100%
c c  0.10 22 0 0 0  0 0   0   0 0.0 0 0 0 0 0% 36897 97565 32683 90%
c d  0.10 22 0 0 0  0 0   0   0 0.0 0 0 0 0 0% 29333 97565 32683 90%
c =  0.14 22 0 0 0  0 0   0   0 0.0 0 0 0 0 0% 29685 97565 32428 89%
c d  0.15 22 0 0 0  0 0   0   0 0.0 0 0 0 0 0% 29175 97565 32428 89%
c f  0.21 20 0 0 0  0 0   0   0 0.0 0 0 0 0 0% 32112 92868 34186 94%
c e  0.31 28 0 0 0  0 0   0   0 0.0 0 0 0 0 0% 10147 107035 23092 63%
c )  0.31 28 0 0 0  0 0   0   0 0.0 0 0 0 0 0% 10147 107035 23092 63%
c {  0.32 28 0 0 0  0 0   0   0 0.0 0 0 2 6 0% 10147 107035 23092 63%
c -  0.41 30 216 0 1 243 36 1000 682 3.1 13 4 2 5 14% 10235 107030 23092 63%
c -  0.54 30 383 0 2 351 38 2000 1453 3.5 14 4 2 6 20% 10275 107026 23092 63%
c c  0.70 23 346 0 2 497 39 2503 1893 3.5 16 5 2 6 21% 10304 106967 23077 63%
c d  0.71 23 346 0 2 497 39 2503 1861 3.5 16 5 2 6 21% 10274 106967 23077 63%
c u  0.71 23 346 0 2 497 39 2503 1454 3.5 16 5 2 6 21% 10289 106967 23077 63%
c v  0.72 23 346 0 2 497 39 2503 1208 3.5 16 5 2 6 21% 10291 106967 23077 63%
c w  0.74 23 346 0 2 497 39 2503 1198 3.5 16 5 2 6 21% 10291 106967 23077 63%
c x  0.75 23 346 0 2 497 39 2503 1197 3.5 16 5 2 6 21% 10388 106759 23077 63%
c =  0.80 23 346 0 2 497 39 2503 1197 3.5 16 5 2 6 21% 10642 106759 22950 63%
c
c  seconds   switched   rate       size/glue tier1    binary           remaining
c         MB  reductions conflicts       size  tier2      irredundant
c           level restarts    redundant    glue   trail           variables
c
c d  0.80 23 346 0 2 497 39 2503 1194 3.5 16 5 2 6 21% 10384 106759 22949 63%
c t  0.81 23 346 0 2 497 39 2503 1194 3.5 16 5 2 6 21% 10383 106759 22949 63%
c f  0.82 23 346 0 2 497 39 2503 1194 3.5 16 5 2 6 21% 11022 105511 23557 65%
c u  0.84 25 346 0 2 497 39 2503 1147 3.5 16 5 2 6 21% 11023 105511 23557 65%
c v  0.85 25 346 0 2 497 39 2503 1111 3.5 16 5 2 6 21% 11023 105511 23557 65%
c w  0.87 25 346 0 2 497 39 2503 1080 3.5 16 5 2 6 21% 11023 105511 23557 65%
c x  0.88 25 346 0 2 497 39 2503 1080 3.5 16 5 2 6 21% 11023 105430 23557 65%
c =  0.92 25 346 0 2 497 39 2503 1080 3.5 16 5 2 6 21% 11295 105430 23421 64%
c d  0.93 25 346 0 2 497 39 2503 1078 3.5 16 5 2 6 21% 10975 105430 23421 64%
c f  0.96 25 346 0 2 497 39 2503 1078 3.5 16 5 2 6 21% 11391 104806 23629 65%
c -  1.27 25 324 0 3 695 40 3414 1605 3.5 25 7 2 8 25% 11417 104806 23629 65%
c -  1.47 25 398 0 4 830 41 5146 2668 3.8 25 6 2 8 24% 11515 104790 23629 65%
c -  1.76 25 438 0 5 978 38 7148 3941 3.8 23 6 2 8 25% 11575 104787 23629 65%
c c  1.92 27 425 0 5 1045 38 7707 4437 3.9 24 6 2 8 26% 11588 104650 23589 65%
c d  1.93 27 425 0 5 1045 38 7707 4413 3.9 24 6 2 8 26% 11508 104650 23589 65%
c u  1.94 27 425 0 5 1045 38 7707 3433 3.9 24 6 2 8 26% 11531 104650 23589 65%
c v  1.96 27 425 0 5 1045 38 7707 2987 3.9 24 6 2 8 26% 11532 104650 23589 65%
c w  2.01 27 425 0 5 1045 38 7707 2975 3.9 24 6 2 8 26% 11532 104650 23589 65%
c =  2.12 27 425 0 5 1045 38 7707 2975 3.9 24 6 2 8 26% 12504 104650 23103 63%
c d  2.13 27 425 0 5 1045 38 7707 2968 3.9 24 6 2 8 26% 11430 104650 23102 63%
c
c  seconds   switched    rate       size/glue tier1    binary           remaining
c         MB  reductions  conflicts       size  tier2      irredundant
c           level  restarts    redundant    glue   trail           variables
c
c t  2.14 27 425 0 5 1045 38 7707 2968 3.9 24 6 2 8 26% 11419 104650 23102 63%
c f  2.19 27 425 0 5 1045 38 7707 2968 3.9 24 6 2 8 26% 13475 101566 24130 66%
c u  2.26 27 425 0 5 1045 38 7707 2748 3.9 24 6 2 8 26% 13477 101566 24130 66%
c v  2.28 27 425 0 5 1045 38 7707 2655 3.9 24 6 2 8 26% 13477 101566 24130 66%
c w  2.33 27 425 0 5 1045 38 7707 2644 3.9 24 6 2 8 26% 13477 101566 24130 66%
c x  2.36 27 425 0 5 1045 38 7707 2643 3.9 24 6 2 8 26% 13577 98976 24130 66%
c =  2.47 27 425 0 5 1045 38 7707 2643 3.9 24 6 2 8 26% 14105 98976 23866 65%
c d  2.47 27 425 0 5 1045 38 7707 2638 3.9 24 6 2 8 26% 13517 98976 23866 65%
c t  2.48 27 425 0 5 1045 38 7707 2638 3.9 24 6 2 8 26% 13482 98976 23866 65%
c f  2.53 27 425 0 5 1045 38 7707 2638 3.9 24 6 2 8 26% 13518 98922 23884 65%
c -  2.81 27 392 0 6 1176 36 9385 3630 3.9 24 6 2 8 27% 13560 98920 23884 65%
c o  2.98 27 381 0 6 1258 36 10002 4215 3.9 24 6 2 8 27% 13567 98920 23884 65%
c -  3.21 27 348 0 7 1402 34 11836 5032 3.9 24 6 2 8 26% 13639 98919 23884 65%
c s  3.33 27 351 0 7 1441 34 12510 5593 3.9 24 6 2 8 26% 13670 96436 23884 65%
c e  3.43 27 351 0 7 1441 34 12510 5593 3.9 24 6 2 8 26% 11393 98015 22479 62%
c s  3.44 27 351 0 7 1441 34 12510 5593 3.9 24 6 2 8 26% 11394 96816 22479 62%
c e  3.45 27 351 0 7 1441 34 12510 5593 3.9 24 6 2 8 26% 11388 96822 22477 62%
c ^  3.45 27 351 0 7 1441 34 12510 5593 3.9 24 6 2 8 26% 11388 96822 22477 62%
c -  3.82 27 373 0 8 1621 36 14482 5978 4.2 26 6 2 7 25% 11457 96815 22477 62%
c d  4.01 27 375 0 8 1701 35 15788 6962 4.1 25 6 2 7 25% 11270 96812 22307 61%
c
c  seconds   switched    rate        size/glue tier1    binary          remaining
c         MB  reductions   conflicts       size  tier2      irredundant
c           level  restarts     redundant    glue   trail          variables
c
c u  4.04 27 375 0 8 1701 35 15788 5571 4.1 25 6 2 7 25% 11285 96812 22307 61%
c v  4.06 27 375 0 8 1701 35 15788 4838 4.1 25 6 2 7 25% 11285 96812 22307 61%
c w  4.11 27 375 0 8 1701 35 15788 4820 4.1 25 6 2 7 25% 11285 96812 22307 61%
c x  4.14 27 375 0 8 1701 35 15788 4820 4.1 25 6 2 7 25% 11333 93957 22307 61%
c =  4.29 27 375 0 8 1701 35 15788 4820 4.1 25 6 2 7 25% 13035 93957 21456 59%
c d  4.30 27 375 0 8 1701 35 15788 4708 4.1 25 6 2 7 25% 10968 93957 21454 59%
c t  4.31 27 375 0 8 1701 35 15788 4708 4.1 25 6 2 7 25% 10957 93957 21454 59%
c f  4.36 27 375 0 8 1701 35 15788 4708 4.1 25 6 2 7 25% 10969 93927 21463 59%
c u  4.44 27 375 0 8 1701 35 15788 4315 4.1 25 6 2 7 25% 10979 93927 21463 59%
c v  4.47 27 375 0 8 1701 35 15788 4194 4.1 25 6 2 7 25% 10979 93927 21463 59%
c w  4.51 27 375 0 8 1701 35 15788 4179 4.1 25 6 2 7 25% 10979 93927 21463 59%
c x  4.55 27 375 0 8 1701 35 15788 4179 4.1 25 6 2 7 25% 11018 92019 21463 59%
c =  4.73 27 375 0 8 1701 35 15788 4179 4.1 25 6 2 7 25% 12314 92019 20815 57%
c d  4.74 27 375 0 8 1701 35 15788 4129 4.1 25 6 2 7 25% 10753 92019 20814 57%
c t  4.76 27 375 0 8 1701 35 15788 4129 4.1 25 6 2 7 25% 10748 92019 20814 57%
c f  4.79 27 375 0 8 1701 35 15788 4129 4.1 25 6 2 7 25% 10753 91991 20823 57%
c -  5.10 27 358 0 9 1779 34 17311 4760 4.0 25 6 2 7 25% 10784 91990 20823 57%
c o  5.62 27 352 0 9 1951 33 20092 7134 4.0 24 6 2 7 25% 10851 91989 20823 57%
c -  5.82 27 350 0 10 2007 33 20311 6522 4.2 26 6 2 7 25% 10852 91989 20823 57%
c -  6.26 27 342 0 11 2226 32 23474 8272 4.2 26 6 2 7 25% 10943 91988 20823 57%
c
c  seconds   switched     rate        size/glue tier1    binary          remaining
c         MB   reductions   conflicts       size  tier2      irredundant
c           level   restarts     redundant    glue   trail          variables
c
c s  6.38 27 356 0 11 2278 32 25012 9589 4.2 25 6 2 7 25% 10991 91156 20823 57%
c e  6.48 27 356 0 11 2278 32 25012 9589 4.2 25 6 2 7 25% 9387 94965 17814 49%
c s  6.50 27 356 0 11 2278 32 25012 9589 4.2 25 6 2 7 25% 9426 91149 17814 49%
c e  6.53 27 356 0 11 2278 32 25012 9589 4.2 25 6 2 7 25% 9402 91184 17795 49%
c ^  6.53 27 356 0 11 2278 32 25012 9589 4.2 25 6 2 7 25% 9402 91184 17795 49%
c -  6.73 27 355 0 12 2411 31 26792 7941 4.0 24 6 2 7 24% 9455 91182 17795 49%
c d  6.76 27 354 0 12 2419 31 26918 8054 4.0 24 6 2 7 24% 9393 91182 17758 49%
c u  6.81 27 354 0 12 2419 31 26918 6549 4.0 24 6 2 7 24% 9416 91182 17758 49%
c v  6.85 27 354 0 12 2419 31 26918 5709 4.0 24 6 2 7 24% 9417 91182 17758 49%
c w  6.86 27 354 0 12 2419 31 26918 5703 4.0 24 6 2 7 24% 9417 91182 17758 49%
c x  6.95 27 354 0 12 2419 31 26918 5702 4.0 24 6 2 7 24% 9441 88946 17758 49%
c =  7.16 27 354 0 12 2419 31 26918 5702 4.0 24 6 2 7 24% 11075 88946 16941 46%
c d  7.17 27 354 0 12 2419 31 26918 5551 4.0 24 6 2 7 24% 9317 88946 16941 46%
c t  7.19 27 354 0 12 2419 31 26918 5551 4.0 24 6 2 7 24% 9295 88946 16941 46%
c f  7.26 27 354 0 12 2419 31 26918 5551 4.0 24 6 2 7 24% 9309 88802 16970 47%
c u  7.31 27 354 0 12 2419 31 26918 5199 4.0 24 6 2 7 24% 9312 88802 16970 47%
c v  7.34 27 354 0 12 2419 31 26918 5093 4.0 24 6 2 7 24% 9312 88802 16970 47%
c w  7.35 27 354 0 12 2419 31 26918 5092 4.0 24 6 2 7 24% 9312 88802 16970 47%
c x  7.45 27 354 0 12 2419 31 26918 5090 4.0 24 6 2 7 24% 9316 84380 16970 47%
c =  7.66 27 354 0 12 2419 31 26918 5090 4.0 24 6 2 7 24% 10798 84380 16229 45%
c
c  seconds   switched     rate        size/glue tier1    binary         remaining
c         MB   reductions   conflicts       size  tier2     irredundant
c           level   restarts     redundant    glue   trail         variables
c
c d  7.67 27 354 0 12 2419 31 26918 4948 4.0 24 6 2 7 24% 9275 84380 16229 45%
c t  7.69 27 354 0 12 2419 31 26918 4948 4.0 24 6 2 7 24% 9243 84380 16229 45%
c f  7.74 27 354 0 12 2419 31 26918 4948 4.0 24 6 2 7 24% 9251 84348 16237 45%
c -  8.32 27 324 0 13 2649 29 30259 7055 3.7 22 6 2 7 24% 9299 84346 16237 45%
c i  8.32 27 323 0 13 2649 29 30327 7082 3.7 22 6 2 7 24% 9304 84346 16236 45%
c -  8.93 27 304 0 14 2882 28 33866 8962 3.6 21 6 2 7 24% 9363 84346 16236 45%
c -  9.45 27 291 0 15 3103 27 37610 10703 3.4 20 6 2 7 24% 9409 84346 16236 45%
c o  9.80 27 284 0 15 3244 26 40395 12956 3.4 20 6 2 7 23% 9479 84346 16236 45%
c c 10.13 27 283 0 15 3363 26 41246 13702 3.4 20 6 2 7 23% 9557 83861 16131 44%
c d 10.14 27 283 0 15 3363 26 41246 13226 3.4 20 6 2 7 23% 9327 83857 16115 44%
c d 10.14 27 283 0 15 3363 26 41246 13226 3.4 20 6 2 7 23% 9323 83857 16113 44%
c u 10.20 27 283 0 15 3363 26 41246 11035 3.4 20 6 2 7 23% 9341 83857 16113 44%
c v 10.27 27 283 0 15 3363 26 41246 9691 3.4 20 6 2 7 23% 9347 83857 16113 44%
c w 10.30 27 283 0 15 3363 26 41246 9691 3.4 20 6 2 7 23% 9347 83857 16113 44%
c x 10.38 28 283 0 15 3363 26 41246 9691 3.4 20 6 2 7 23% 9352 78512 16113 44%
c d 10.61 28 283 0 15 3363 26 41246 9669 3.4 20 6 2 7 23% 9336 78512 16105 44%
c t 10.63 28 283 0 15 3363 26 41246 9669 3.4 20 6 2 7 23% 9314 78512 16105 44%
c f 10.65 28 283 0 15 3363 26 41246 9669 3.4 20 6 2 7 23% 9316 78501 16107 44%
c u 10.72 28 283 0 15 3363 26 41246 9323 3.4 20 6 2 7 23% 9328 78501 16107 44%
c v 10.76 28 283 0 15 3363 26 41246 9016 3.4 20 6 2 7 23% 9328 78501 16107 44%
c
c  seconds   switched     rate        size/glue tier1    binary         remaining
c         MB   reductions   conflicts       size  tier2     irredundant
c           level   restarts     redundant    glue   trail         variables
c
c w 10.85 28 283 0 15 3363 26 41246 9011 3.4 20 6 2 7 23% 9328 78501 16107 44%
c x 10.92 28 283 0 15 3363 26 41246 9011 3.4 20 6 2 7 23% 9336 77634 16107 44%
c d 10.93 28 283 0 15 3363 26 41246 9010 3.4 20 6 2 7 23% 9334 77634 16106 44%
c t 10.94 28 283 0 15 3363 26 41246 9010 3.4 20 6 2 7 23% 9332 77634 16106 44%
c - 11.03 28 282 0 16 3385 26 41484 8193 3.4 20 6 2 6 23% 9333 77634 16106 44%
c - 11.57 28 267 0 17 3621 25 45485 10519 3.3 19 6 2 6 23% 9387 77633 16106 44%
c - 12.44 28 257 0 18 4013 25 49608 12803 3.2 19 6 2 6 23% 9430 77633 16106 44%
c s 12.80 28 258 0 18 4225 25 52115 14980 3.2 19 6 2 6 23% 9481 76033 16106 44%
c e 12.90 28 258 0 18 4225 25 52115 14980 3.2 19 6 2 6 23% 7934 79224 14748 40%
c 2 12.90 28 258 0 18 4225 25 52115 14980 3.2 19 6 2 6 23% 7933 79224 14748 40%
c s 12.91 28 258 0 18 4225 25 52115 14980 3.2 19 6 2 6 23% 7957 78332 14748 40%
c e 12.92 28 258 0 18 4225 25 52115 14980 3.2 19 6 2 6 23% 7935 78333 14724 40%
c ^ 12.92 28 258 0 18 4225 25 52115 14980 3.2 19 6 2 6 23% 7935 78333 14724 40%
c - 13.14 28 252 0 19 4354 25 53854 12770 3.2 19 6 2 6 24% 7948 78329 14724 40%
c - 13.61 28 236 0 20 4746 24 58214 14842 3.1 19 6 2 6 23% 8014 78324 14724 40%
c c 13.76 28 234 0 20 4821 24 58883 15468 3.1 19 6 2 6 23% 8108 77912 14662 40%
c d 13.76 28 234 0 20 4821 24 58883 15351 3.1 19 6 2 6 23% 7978 77912 14658 40%
c u 13.81 28 234 0 20 4821 24 58883 12958 3.1 19 6 2 6 23% 8003 77912 14658 40%
c v 13.85 28 234 0 20 4821 24 58883 11577 3.1 19 6 2 6 23% 8008 77912 14658 40%
c w 13.88 28 234 0 20 4821 24 58883 11538 3.1 19 6 2 6 23% 8008 77912 14658 40%
c
c  seconds   switched     rate         size/glue tier1    binary         remaining
c         MB   reductions   conflicts        size  tier2     irredundant
c           level   restarts      redundant    glue   trail         variables
c
c x 13.93 28 234 0 20 4821 24 58883 11537 3.1 19 6 2 6 23% 8017 77704 14658 40%
c = 14.18 28 234 0 20 4821 24 58883 11537 3.1 19 6 2 6 23% 9117 77696 14108 39%
c d 14.18 28 234 0 20 4821 24 58883 10981 3.1 19 6 2 6 23% 7916 77696 14107 39%
c t 14.19 28 234 0 20 4821 24 58883 10981 3.1 19 6 2 6 23% 7888 77696 14107 39%
c f 14.24 28 234 0 20 4821 24 58883 10981 3.1 19 6 2 6 23% 7890 77676 14110 39%
c u 14.32 28 234 0 20 4821 24 58883 10076 3.1 19 6 2 6 23% 7895 77676 14110 39%
c v 14.34 28 234 0 20 4821 24 58883 9859 3.1 19 6 2 6 23% 7896 77676 14110 39%
c w 14.37 28 234 0 20 4821 24 58883 9842 3.1 19 6 2 6 23% 7896 77676 14110 39%
c x 14.46 28 234 0 20 4821 24 58883 9837 3.1 19 6 2 6 23% 7915 73862 14110 39%
c t 14.70 28 234 0 20 4821 24 58883 9837 3.1 19 6 2 6 23% 7912 73862 14110 39%
c - 15.25 28 225 0 21 5255 24 62686 11974 3.0 18 6 2 6 24% 7935 73859 14110 39%
c - 15.98 28 217 0 22 5791 24 67268 14490 2.9 18 6 2 6 24% 7974 73855 14110 39%
c i 16.31 28 214 0 22 5965 23 69434 16386 2.9 18 6 2 6 24% 8007 73854 14109 39%
c o 16.53 28 212 0 22 6076 23 70395 17284 2.9 18 6 2 6 24% 8011 73853 14109 39%
c - 16.77 28 210 0 23 6268 23 71960 16585 2.9 18 6 2 6 24% 8018 73853 14109 39%
c - 17.43 28 205 0 24 6813 23 76755 18404 2.9 18 6 2 6 24% 8058 73852 14109 39%
c d 17.93 28 204 0 24 7208 24 79962 21228 2.8 18 6 2 6 25% 7998 73839 14066 39%
c d 17.93 28 204 0 24 7208 24 79962 21228 2.8 18 6 2 6 25% 7996 73839 14065 39%
c u 18.00 28 204 0 24 7208 24 79962 18089 2.8 18 6 2 6 25% 8020 73839 14065 39%
c v 18.06 28 204 0 24 7208 24 79962 15887 2.8 18 6 2 6 25% 8023 73839 14065 39%
c
c  seconds   switched     rate         size/glue tier1    binary         remaining
c         MB   reductions   conflicts        size  tier2     irredundant
c           level   restarts      redundant    glue   trail         variables
c
c w 18.12 28 204 0 24 7208 24 79962 15883 2.8 18 6 2 6 25% 8023 73839 14065 39%
c x 18.19 28 204 0 24 7208 24 79962 15874 2.8 18 6 2 6 25% 8044 73151 14065 39%
c d 18.20 28 204 0 24 7208 24 79962 15859 2.8 18 6 2 6 25% 8026 73151 14056 39%
c t 18.21 28 204 0 24 7208 24 79962 15859 2.8 18 6 2 6 25% 8014 73151 14056 39%
c c 18.26 28 204 0 24 7208 24 79962 15770 2.8 18 6 2 6 25% 8101 72791 14011 38%
c d 18.26 28 204 0 24 7208 24 79962 15748 2.8 18 6 2 6 25% 8011 72791 14011 38%
c u 18.33 28 204 0 24 7208 24 79962 15084 2.8 18 6 2 6 25% 8021 72791 14011 38%
c v 18.38 28 204 0 24 7208 24 79962 14779 2.8 18 6 2 6 25% 8022 72791 14011 38%
c w 18.48 28 204 0 24 7208 24 79962 14673 2.8 18 6 2 6 25% 8022 72791 14011 38%
c x 18.54 28 204 0 24 7208 24 79962 14672 2.8 18 6 2 6 25% 8024 72502 14011 38%
c = 18.74 28 204 0 24 7208 24 79962 14672 2.8 18 6 2 6 25% 8156 72502 13945 38%
c d 18.74 28 204 0 24 7208 24 79962 14639 2.8 18 6 2 6 25% 8013 72502 13942 38%
c t 18.75 28 204 0 24 7208 24 79962 14639 2.8 18 6 2 6 25% 8012 72502 13942 38%
c f 18.76 28 204 0 24 7208 24 79962 14639 2.8 18 6 2 6 25% 8013 72496 13943 38%
c - 18.99 28 202 0 25 7377 23 81655 14429 2.8 18 6 2 6 25% 8036 72496 13943 38%
c - 19.57 28 194 0 26 7834 23 86656 17032 2.8 17 6 2 6 25% 8100 72492 13943 38%
c - 20.65 28 189 0 27 8658 23 91755 19485 2.7 18 6 2 6 25% 8137 72491 13943 38%
c s 21.42 28 186 0 27 9231 24 95797 23103 2.8 18 6 2 6 25% 8190 72178 13943 38%
c e 21.52 28 186 0 27 9231 24 95797 23103 2.8 18 6 2 6 25% 5436 79298 12412 34%
c 2 21.52 28 186 0 27 9231 24 95797 23103 2.8 18 6 2 6 25% 5435 79298 12412 34%
c
c  seconds   switched     rate         size/glue tier1    binary         remaining
c         MB   reductions   conflicts        size  tier2     irredundant
c           level   restarts      redundant    glue   trail         variables
c
c s 21.54 28 186 0 27 9231 24 95797 23103 2.8 18 6 2 6 25% 5466 78656 12412 34%
c e 21.55 28 186 0 27 9231 24 95797 23103 2.8 18 6 2 6 25% 5413 78814 12363 34%
c ^ 21.55 28 186 0 27 9231 24 95797 23103 2.8 18 6 2 6 25% 5413 78814 12363 34%
c - 21.74 28 185 0 28 9378 24 96951 16405 2.8 18 7 2 5 26% 5422 78814 12363 34%
c - 22.48 28 182 0 29 9989 24 102243 18927 2.8 18 7 2 5 26% 5494 78809 12363 34%
c c 22.98 28 181 0 29 10288 24 104602 21119 2.8 18 7 2 5 26% 5613 78267 12270 34%
c d 22.98 28 181 0 29 10288 24 104602 20857 2.8 18 7 2 5 26% 5427 78267 12270 34%
c u 23.05 28 181 0 29 10288 24 104602 17589 2.8 18 7 2 5 26% 5456 78267 12270 34%
c v 23.10 28 181 0 29 10288 24 104602 15772 2.8 18 7 2 5 26% 5460 78267 12270 34%
c w 23.24 28 181 0 29 10288 24 104602 15660 2.8 18 7 2 5 26% 5460 78267 12270 34%
c x 23.32 28 181 0 29 10288 24 104602 15659 2.8 18 7 2 5 26% 5460 78236 12270 34%
c = 23.76 28 181 0 29 10288 24 104602 15659 2.8 18 7 2 5 26% 6522 78189 11736 32%
c d 23.77 28 181 0 29 10288 24 104602 15246 2.8 18 7 2 5 26% 5355 78189 11736 32%
c t 23.78 28 181 0 29 10288 24 104602 15246 2.8 18 7 2 5 26% 5320 78189 11736 32%
c f 23.86 28 181 0 29 10288 24 104602 15246 2.8 18 7 2 5 26% 5358 77980 11755 32%
c u 23.94 28 181 0 29 10288 24 104602 13983 2.8 18 7 2 5 26% 5365 77980 11755 32%
c v 23.97 28 181 0 29 10288 24 104602 13667 2.8 18 7 2 5 26% 5365 77980 11755 32%
c w 24.10 28 181 0 29 10288 24 104602 13367 2.8 18 7 2 5 26% 5365 77980 11755 32%
c = 24.55 28 181 0 29 10288 24 104602 13367 2.8 18 7 2 5 26% 5645 77969 11615 32%
c d 24.56 28 181 0 29 10288 24 104602 13330 2.8 18 7 2 5 26% 5355 77969 11614 32%
c
c  seconds   switched      rate          size/glue tier1    binary         remaining
c         MB   reductions    conflicts         size  tier2     irredundant
c           level   restarts        redundant    glue   trail         variables
c
c t 24.57 28 181 0 29 10288 24 104602 13330 2.8 18 7 2 5 26% 5345 77969 11614 32%
c - 25.00 28 178 0 30 10568 23 107628 13082 2.7 18 7 1 5 26% 5354 77968 11614 32%
c o 25.47 28 176 0 30 10823 23 110397 15636 2.7 18 7 1 5 26% 5362 77964 11614 32%
c - 25.96 28 174 0 31 11136 23 113105 15357 2.7 19 7 1 5 27% 5372 77963 11614 32%
c - 27.03 28 172 0 32 11867 24 118673 17241 2.8 19 7 1 5 27% 5401 77961 11614 32%
c - 28.16 28 169 0 33 12560 24 124329 19004 2.8 20 7 1 5 27% 5415 77957 11614 32%
c - 29.41 28 167 0 34 13345 24 130073 20771 2.8 21 7 1 5 28% 5423 77957 11614 32%
c d 29.85 28 165 0 34 13618 24 132859 23153 2.8 21 7 1 5 28% 5391 77955 11592 32%
c u 29.91 28 165 0 34 13618 24 132859 20710 2.8 21 7 1 5 28% 5406 77955 11592 32%
c v 30.00 28 165 0 34 13618 24 132859 17067 2.8 21 7 1 5 28% 5410 77955 11592 32%
c w 30.15 28 165 0 34 13618 24 132859 16841 2.8 21 7 1 5 28% 5410 77955 11592 32%
c x 30.28 28 165 0 34 13618 24 132859 16796 2.8 21 7 1 5 28% 5457 72841 11592 32%
c = 30.88 28 165 0 34 13618 24 132859 16796 2.8 21 7 1 5 28% 5543 72841 11549 32%
c d 30.88 28 165 0 34 13618 24 132859 16689 2.8 21 7 1 5 28% 5437 72841 11549 32%
c t 30.89 28 165 0 34 13618 24 132859 16689 2.8 21 7 1 5 28% 5416 72841 11549 32%
c u 31.01 28 165 0 34 13618 24 132859 16037 2.8 21 7 1 5 28% 5426 72841 11549 32%
c v 31.05 28 165 0 34 13618 24 132859 15433 2.8 21 7 1 5 28% 5426 72841 11549 32%
c w 31.22 28 165 0 34 13618 24 132859 15114 2.8 21 7 1 5 28% 5426 72841 11549 32%
c x 31.37 28 165 0 34 13618 24 132859 15112 2.8 21 7 1 5 28% 5426 72349 11549 32%
c = 32.01 28 165 0 34 13618 24 132859 15112 2.8 21 7 1 5 28% 5428 72349 11548 32%
c
c  seconds   switched      rate          size/glue tier1    binary         remaining
c         MB   reductions    conflicts         size  tier2     irredundant
c           level   restarts        redundant    glue   trail         variables
c
c d 32.01 28 165 0 34 13618 24 132859 15112 2.8 21 7 1 5 28% 5426 72349 11548 32%
c t 32.02 28 165 0 34 13618 24 132859 15112 2.8 21 7 1 5 28% 5422 72349 11548 32%
c - 32.38 28 165 0 35 13749 23 135903 15375 2.8 21 7 1 5 28% 5427 72348 11548 32%
c - 33.17 28 163 0 36 14196 23 141819 17728 2.8 21 7 1 5 28% 5441 72344 11548 32%
c i 34.11 28 161 0 36 14687 23 146176 21743 2.8 21 8 1 5 28% 5455 72342 11547 32%
c - 34.42 28 160 0 37 14888 23 147823 19687 2.8 21 8 1 4 28% 5454 72341 11547 32%
c i 34.63 28 159 0 37 15032 23 148906 20638 2.8 22 8 1 4 28% 5467 72341 11546 32%
c i 34.65 28 159 0 37 15049 23 149123 20817 2.8 22 8 1 4 28% 5471 72341 11545 32%
c i 34.74 28 159 0 37 15100 23 149561 21232 2.8 22 8 1 4 28% 5476 72341 11544 32%
c i 35.00 28 157 0 37 15265 22 152129 23500 2.8 22 8 1 4 28% 5488 72340 11541 32%
c i 35.02 28 157 0 37 15275 22 152197 23554 2.8 22 8 1 4 28% 5492 72340 11538 32%
c i 35.02 28 157 0 37 15275 22 152213 23563 2.8 22 8 1 4 28% 5492 72340 11537 32%
c i 35.02 28 157 0 37 15277 22 152462 23739 2.8 22 8 1 4 28% 5501 72340 11536 32%
c i 35.05 28 158 0 37 15288 22 152689 23935 2.8 22 8 1 4 28% 5505 72340 11535 32%
c - 35.29 28 157 0 38 15398 22 153906 21041 2.8 22 8 1 4 28% 5477 72340 11535 32%
c i 35.35 28 157 0 38 15436 22 154172 21280 2.8 22 8 1 4 28% 5482 72340 11534 32%
c i 35.45 28 157 0 38 15506 22 154692 21767 2.8 22 8 1 4 28% 5485 72339 11533 32%
c i 35.45 28 157 0 38 15506 22 154720 21776 2.8 22 8 1 4 28% 5487 72339 11531 32%
c s 35.92 28 155 0 38 15811 22 157883 24734 2.8 22 8 1 4 28% 5496 72191 11531 32%
c e 36.05 28 155 0 38 15811 22 157883 24734 2.8 22 8 1 4 28% 2944 84503 9844 27%
c
c  seconds   switched      rate          size/glue tier1    binary        remaining
c         MB   reductions    conflicts         size  tier2     irredundant
c           level   restarts        redundant    glue   trail        variables
c
c 2 36.05 28 155 0 38 15811 22 157883 24734 2.8 22 8 1 4 28% 2943 84503 9844 27%
c s 36.08 28 155 0 38 15811 22 157883 24734 2.8 22 8 1 4 28% 2958 83548 9844 27%
c e 36.10 28 155 0 38 15811 22 157883 24734 2.8 22 8 1 4 28% 2905 83762 9797 27%
c ^ 36.10 28 155 0 38 15811 22 157883 24734 2.8 22 8 1 4 28% 2905 83762 9797 27%
c i 36.13 28 154 0 38 15823 22 158324 17034 2.8 22 8 1 4 28% 2911 83762 9796 27%
c - 36.33 28 153 0 39 15938 22 160076 15943 2.8 22 8 1 4 27% 2916 83750 9796 27%
c o 36.39 28 153 0 39 15978 22 160397 16252 2.8 22 8 1 4 27% 2916 83750 9796 27%
c i 36.77 28 151 0 39 16216 22 162982 18634 2.8 22 8 1 4 27% 2921 83749 9790 27%
c i 36.81 28 151 0 39 16241 22 163366 18970 2.8 22 8 1 4 27% 2924 83749 9789 27%
c d 37.00 28 150 0 39 16382 22 164878 20174 2.8 21 8 1 4 27% 2932 83677 9784 27%
c d 37.00 28 150 0 39 16382 22 164878 20171 2.8 21 8 1 4 27% 2920 83677 9778 27%
c u 37.06 28 150 0 39 16382 22 164878 18070 2.8 21 8 1 4 27% 2941 83677 9773 27%
c v 37.12 28 150 0 39 16382 22 164878 15445 2.8 21 8 1 4 27% 2944 83677 9773 27%
c w 37.36 28 150 0 39 16382 22 164878 14986 2.8 21 8 1 4 27% 2944 83677 9773 27%
c = 37.88 28 150 0 39 16382 22 164878 14986 2.8 21 8 1 4 27% 3040 83509 9714 27%
c d 37.89 28 150 0 39 16382 22 164878 14737 2.8 21 8 1 4 27% 2933 83508 9714 27%
c t 37.89 28 150 0 39 16382 22 164878 14737 2.8 21 8 1 4 27% 2905 83508 9714 27%
c f 38.00 28 150 0 39 16382 22 164878 14737 2.8 21 8 1 4 27% 2933 83177 9729 27%
c u 38.04 28 150 0 39 16382 22 164878 14369 2.8 21 8 1 4 27% 2933 83177 9729 27%
c v 38.07 28 150 0 39 16382 22 164878 13961 2.8 21 8 1 4 27% 2933 83177 9729 27%
c
c  seconds   switched      rate          size/glue tier1    binary        remaining
c         MB   reductions    conflicts         size  tier2     irredundant
c           level   restarts        redundant    glue   trail        variables
c
c w 38.25 28 150 0 39 16382 22 164878 13359 2.8 21 8 1 4 27% 2933 83177 9729 27%
c x 38.32 28 150 0 39 16382 22 164878 13359 2.8 21 8 1 4 27% 2933 83151 9729 27%
c i 38.86 28 150 0 39 16382 22 164878 13359 2.8 21 8 1 4 27% 2933 83151 9729 27%
c i 38.94 28 149 0 39 16439 22 165910 14283 2.8 21 8 1 4 27% 2941 83147 9728 27%
c - 38.96 28 149 0 40 16454 21 166321 12365 2.8 21 8 1 4 27% 2879 83146 9728 27%
c i 38.96 28 149 0 40 16455 21 166379 12411 2.8 21 8 1 4 27% 2880 83146 9727 27%
c i 39.07 28 145 0 40 16608 21 170570 15795 2.7 21 8 1 4 26% 2905 83146 9726 27%
c - 39.15 28 143 0 41 16714 20 172646 14548 2.7 21 8 1 5 26% 2917 83146 9726 27%
c i 39.19 28 141 0 41 16769 20 174211 15861 2.7 21 8 1 5 25% 2933 83143 9725 27%
c i 39.31 28 137 0 41 16991 20 177445 18606 2.7 21 8 1 5 25% 2966 83143 9721 27%
c i 39.32 28 136 0 41 17005 19 177996 19070 2.7 21 8 1 5 24% 2979 83143 9720 27%
c i 39.34 28 136 0 41 17023 19 178387 19395 2.7 21 8 1 5 24% 2986 83143 9719 27%
c i 39.34 28 136 0 41 17026 19 178565 19504 2.7 21 8 1 5 24% 2991 83143 9718 27%
c i 39.34 28 136 0 41 17026 19 178598 19528 2.7 21 8 1 5 24% 2993 83143 9717 27%
c i 39.34 28 136 0 41 17026 19 178638 19548 2.7 21 8 1 5 24% 3000 83143 9716 27%
c i 39.34 28 136 0 41 17026 19 178713 19592 2.7 20 8 1 5 24% 3003 83143 9714 27%
c } 39.34 28 136 0 41 17026 19 178716 19592 2.7 20 8 1 5 24% 3004 83143 9701 27%
c 0 39.34 28 136 0 41 17026 19 178716 19592 2.7 20 8 1 5 24% 3004 83143 9701 27%
c
c ---- [ result ] ------------------------------------------------------------
c
s UNSATISFIABLE
c
c ---- [ profiling ] ---------------------------------------------------------
c
c          27.06   68.78 %  search
c          27.06   68.78 %  focused
c          11.96   30.41 %  simplify
c          11.34   28.82 %  probe
c           5.15   13.10 %  sweep
c           4.26   10.83 %  vivify
c           0.80    2.03 %  eliminate
c           0.76    1.94 %  factor
c           0.51    1.30 %  congruence
c           0.47    1.19 %  substitute
c           0.27    0.70 %  preprocess
c           0.21    0.54 %  reduce
c           0.14    0.36 %  subsume
c           0.12    0.31 %  transitive
c           0.10    0.25 %  fastel
c           0.06    0.14 %  backbone
c           0.02    0.06 %  lucky
c           0.02    0.06 %  parse
c =============================================
c          39.34  100.00 %  total
c
c ---- [ statistics ] --------------------------------------------------------
c
c chronological:                         5181                3 %  conflicts
c conflicts:                           178716             4542.29 per second
c congruent:                             4142               11 %  variables
c decisions:                          3650603               20.43 per conflict
c eliminated:                           20225               55 %  variables
c factored:                              3715               10 %  variables
c fast_eliminated:                      11094               55 %  eliminated
c fast_strengthened:                        2                0 %  per strengthened
c fast_subsumed:                           63                0 %  per subsumed
c iterations:                              29                0 %  variables
c propagations:                     158993884          4041024    per second
c reductions:                              41             4359    interval
c reordered:                                6            29786    interval
c restarts:                             17026               10    interval
c strengthened:                          5606                0 %  checks
c substituted:                          10180               28 %  variables
c subsumed:                             12722                0 %  checks
c switched:                                 0                0    interval
c vivified:                             88809               13 %  checks
c
c ---- [ glue usage ] --------------------------------------------------------
c
c focused glue 1 used 276326 clauses 58.63% accumulated 58.63% tier1
c focused glue 2 used  98993 clauses 21.00% accumulated 79.63%
c focused glue 3 used  30214 clauses  6.41% accumulated 86.05%
c focused glue 4 used  17197 clauses  3.65% accumulated 89.69%
c focused glue 5 used  10820 clauses  2.30% accumulated 91.99% tier2
c
c ---- [ resources ] ---------------------------------------------------------
c
c maximum-resident-set-size:         31350784 bytes         30 MB
c process-time:                            39s              39.34 seconds
c
c ---- [ shutting down ] -----------------------------------------------------
c
c exit 20
